N = 10;
Dist = [|0, 345, 105, 95, 390, 100, 368, 868, 353, 619
| 345, 0, 271, 827, 45, 748, 471, 550, 128, 997
| 105, 271, 0, 945, 388, 81, 566, 301, 850, 644
| 95, 827, 945, 0, 634, 907, 883, 371, 592, 197
| 390, 45, 388, 634, 0, 722, 72, 47, 678, 234
| 100, 748, 81, 907, 722, 0, 792, 297, 82, 876
| 368, 471, 566, 883, 72, 792, 0, 239, 888, 104
| 868, 550, 301, 371, 47, 297, 239, 0, 390, 285
| 353, 128, 850, 592, 678, 82, 888, 390, 0, 465
| 619, 997, 644, 197, 234, 876, 104, 285, 465, 0 |];